NPeriods = 30;
NSubPeriods = 4;
NGrammage = 8;
NPMachines = 1;

alfa = 2.12481;
vmax_dig = 13.5;
vmin_dig = 7;

NSpeed = 27;
speed_Inicial = 12;
teta = 2;

price=[760,750,759,743,752,754,770,773];

Speeds = [7,7.25,7.5,7.75,8,8.25,8.5,8.75,9,9.25,9.5,9.75,10,10.25,10.5,10.75,11,11.25,11.5,11.75,12,12.25,12.5,12.75,13,13.25,13.5];

hour = [24,24,24,24,24,24,24,24,24,24,24,24,24,24,24,24,24,24,24,24,24,24,24,24,24,24,24,24,24,24];

Nmin = 0.5;
I0_virg = 357.776;
Imin_virg = 150;
Imax_virg = 1645.02;

sl = [[[0],[1.12],[1.86],[4.87],[8.02],[8.49],[16.24],[24.47]],
[[1.12],[0],[0.74],[4.25],[7.66],[8.13],[15.89],[24.11]],
[[1.86],[0.74],[0],[3.72],[7.43],[7.9],[15.65],[23.88]],
[[4.87],[4.25],[3.72],[0],[6.93],[6.72],[14.48],[22.7]],
[[8.02],[7.66],[7.43],[6.93],[0],[1.49],[11.54],[19.77]],
[[8.49],[8.13],[7.9],[6.72],[1.49],[0],[11.07],[19.3]],
[[16.24],[15.89],[15.65],[14.48],[11.54],[11.07],[0],[11.54]],
[[24.47],[24.11],[23.88],[22.7],[19.77],[19.3],[11.54],[0]]];

st =[[[0],[1.44],[2.4],[5.9],[9.47],[9.96],[18.01],[26.56]],
[[1.44],[0],[0.96],[5.24],[9.1],[9.59],[17.65],[26.19]],
[[2.4],[0.96],[0],[4.81],[8.86],[9.34],[17.4],[25.95]],
[[5.9],[5.24],[4.81],[0],[8.12],[8.12],[16.18],[24.73]],
[[9.47],[9.1],[8.86],[8.12],[0],[1.92],[13.13],[21.68]],
[[9.96],[9.59],[9.34],[8.12],[1.92],[0],[12.64],[21.19]],
[[18.01],[17.65],[17.4],[16.18],[13.13],[12.64],[0],[13.13]],
[[26.56],[26.19],[25.95],[24.73],[21.68],[21.19],[13.13],[0]]];

b_virg=[[0.95],[0.95],[0.95],[0.95],[0.925],[0.925],[0.925],[0.925]];
b=[[0.0397614],[0.0378788],[0.0388651],[0.035791],[0.0286287],[0.027533],[0.0204541],[0.0233918]];

M=[[3000],[3000],[3000],[3000],[3000],[3000],[3000],[3000]];
m_g=[[50],[50],[50],[50],[50],[50],[50],[50]];

NomesGrammage=["KLB 60","KLB 63","KLB 65","KLB 75","KLB 100","KLB 104","KLB 170","KLB 240"];

wG=[60,63,65,75,100,104,170,240];

tG=["KLB","KLB","KLB","KLB","KLB","KLB","KLB","KLB"];

Atrasos = [1214.56, 1949.15, 1329.16, 3230.61, 1167.22, 1882.37, 1070.94, 407.936];
d=[ [	65.6449	92.8406	9.37784	0	0	0	0	55.9545	0	55.9545	0	55.9545	0	55.9545	0	55.9545	0	55.9545	0	55.9545	0	55.9545	0	55.9545	0	55.9545	0	55.9545	0	55.9545	],
 [	0	93.7784	45.9514	23.4446	0	23.4446	46.6548	46.6548	46.6548	46.6548	46.6548	46.6548	46.6548	46.6548	0	46.6548	0	46.6548	0	46.6548	0	46.6548	0	46.6548	0	46.6548	0	46.6548	0	46.6548	],
 [	12.1912	14.0668	28.5514	0	0	93.7784	37.1469	37.1469	37.1469	37.1469	37.1469	37.1469	37.1469	37.1469	0	37.1469	0	37.1469	0	37.1469	0	37.1469	0	37.1469	0	37.1469	0	37.1469	0	37.1469	],
 [	83.7971	256.953	55.2271	79.7117	75.0227	0	110.142	110.142	110.142	110.142	110.142	110.142	110.142	110.142	110.142	110.142	110.142	110.142	110.142	110.142	110.142	110.142	0	110.142	0	110.142	0	110.142	0	110.142	],
 [	25.3202	115.347	56.2671	162.237	70.3338	23.4446	75.4916	75.4916	75.4916	75.4916	75.4916	75.4916	75.4916	75.4916	75.4916	75.4916	75.4916	75.4916	75.4916	75.4916	75.4916	75.4916	75.4916	75.4916	75.4916	75.4916	75.4916	75.4916	75.4916	75.4916	],
 [	73.1472	0	70.3338	67.5205	0	23.4446	58.6115	58.6115	58.6115	58.6115	58.6115	58.6115	58.6115	58.6115	0	58.6115	0	58.6115	0	58.6115	0	58.6115	0	58.6115	0	58.6115	0	58.6115	0	58.6115	],
 [	12.1912	23.4446	74.5028	23.4446	37.5114	0	34.2189	34.2189	34.2189	34.2189	34.2189	34.2189	34.2189	34.2189	34.2189	34.2189	34.2189	34.2189	34.2189	34.2189	34.2189	34.2189	0	34.2189	0	34.2189	0	34.2189	0	34.2189	],
 [	0	0	5.10675	0	0	0	0	0	0	0	0	5.10675	0	0	0	0	0	5.10675	0	0	0	0	0	5.10675	0	0	0	0	0	5.10675	]];

grammage_Inicial = [1];

Wini = [1];

A = [{1,2,3,4,5,6,7,8}];
NTop = [{8}];
NBot = [{1}];

delta = 17.821;
I0_liquor = 3000.3;
Imax_liquor = 4112.95;
Imin_liquor = 1500.15;
mii = 288.701;

fator = 0.8976;
fator2 = 43.3051;
I0_dry = 429.17;
Imax_dry = 809.609;
Imin_dry = 400.4;
zeta = 3.8;
f_heat = 137.133;
gama = 0.1671;
